nServices=10;
nDrivers=10;
nBuses=10;
startTime=[125 8 14 11 4 141 176 161 188 2];
durationTime=[11 26 13 14 13 12 30 26 14 17];
durationDist=[24 47 58 29 30 45 27 60 26 37];
passangers=[14 11 6 5 22 23 22 6 21 9];
capacity=[11 18 13 13 30 23 20 16 27 18];
costTime=[10 7 10 8 9 6 10 6 8 8];
costDist=[5 6 4 6 6 4 4 6 4 5];
maxTime=[48 56 26 26 20 27 20 32 46 47];
costBM=[5 7 8 8 7 5 7 6 6 5];
costEM=[12 12 12 10 9 9 12 8 8 10];
BM=[11 15 13 16 17 12 14 13 17 12];
